c A SAT instance generated from a 3-CNF formula that had 48 clauses and 12 variables
p cnf 12 48
11 6 -3 0
-9 2 5 0
-10 -8 5 0
3 9 6 0
5 12 10 0
-7 2 8 0
12 1 -2 0
10 11 3 0
1 -11 7 0
-8 3 9 0
1 -2 -3 0
-1 6 2 0
3 -2 4 0
3 1 11 0
-1 -3 -6 0
10 -9 1 0
12 -7 -5 0
2 -5 1 0
-3 4 -11 0
-5 9 -12 0
11 9 1 0
10 -5 -12 0
-12 4 -3 0
-11 2 4 0
1 6 12 0
-5 -7 2 0
-7 -4 9 0
-9 12 -8 0
3 -7 -4 0
12 -11 -4 0
-10 3 2 0
-6 -11 8 0
-12 11 6 0
-8 7 -11 0
-7 9 11 0
6 5 8 0
-10 9 6 0
3 5 4 0
-11 5 -6 0
6 -11 8 0
-11 -5 -8 0
8 12 5 0
12 4 -5 0
1 -6 -2 0
10 -11 12 0
-4 2 -9 0
6 -3 8 0
-5 -1 7 0
